p cnf 53 191
-1 -2 -3 0
1 2 -3 0
-1 2 3 0
1 -2 3 0
-5 -3 0
-5 4 0
3 -4 5 0
-9 7 0
-9 -8 0
-7 8 9 0
-9 10 -11 0
9 -10 -11 0
-9 -10 11 0
9 10 11 0
6 11 -12 0
-6 -11 -12 0
6 -11 12 0
-6 11 12 0
13 -5 0
13 -12 0
5 12 -13 0
-8 -14 0
8 -14 0
15 6 0
15 -14 0
-6 14 -15 0
-16 4 0
-16 1 0
-4 -1 16 0
-17 -16 0
-17 -7 0
16 7 17 0
17 -10 -18 0
-17 10 -18 0
17 10 18 0
-17 -10 18 0
-15 18 -19 0
15 -18 -19 0
-15 -18 19 0
15 18 19 0
20 19 0
20 -15 0
-19 15 -20 0
-13 -20 -21 0
13 20 -21 0
-13 20 21 0
13 -20 21 0
23 -22 0
23 6 0
22 -6 -23 0
-23 9 -24 0
23 -9 -24 0
-23 -9 24 0
23 9 24 0
-16 23 -25 0
16 -23 -25 0
-16 -23 25 0
16 23 25 0
26 24 0
26 -25 0
-24 25 -26 0
-27 24 0
-27 -23 0
-24 23 27 0
-28 -26 0
-28 -27 0
26 27 28 0
-29 -21 0
-29 -28 0
21 28 29 0
-31 -30 0
-31 2 0
30 -2 31 0
-32 -7 0
-32 -18 0
7 18 32 0
33 32 0
33 -24 0
-32 24 -33 0
-34 33 0
-34 -25 0
-33 25 34 0
-35 -30 0
-35 16 0
30 -16 35 0
36 -35 0
36 16 0
35 -16 -36 0
34 -36 -37 0
-34 36 -37 0
34 36 37 0
-34 -36 37 0
31 -37 -38 0
-31 37 -38 0
31 37 38 0
-31 -37 38 0
-39 -29 0
-39 38 0
29 -38 39 0
17 -7 -40 0
-17 7 -40 0
17 7 40 0
-17 -7 40 0
-32 -6 -41 0
32 6 -41 0
-32 6 41 0
32 -6 41 0
42 40 0
42 -41 0
-40 41 -42 0
44 -43 0
44 -10 0
43 10 -44 0
42 -44 -45 0
-42 44 -45 0
42 44 45 0
-42 -44 45 0
-46 -30 0
-46 -32 0
30 32 46 0
22 14 -47 0
-22 -14 -47 0
22 -14 47 0
-22 14 47 0
48 -47 0
48 -15 0
47 15 -48 0
46 48 -49 0
-46 -48 -49 0
46 -48 49 0
-46 48 49 0
-45 49 -50 0
45 -49 -50 0
-45 -49 50 0
45 49 50 0
17 -10 -51 0
-17 10 -51 0
17 10 51 0
-17 -10 51 0
-52 -50 0
-52 51 0
50 -51 52 0
-39 52 -53 0
39 -52 -53 0
-39 -52 53 0
39 52 53 0
-12 33 45 35 0
19 -21 -44 0
-11 -15 14 47 0
-18 -26 0
-29 -39 -35 27 -5 0
26 31 33 23 0
-37 49 0
53 36 47 -19 -44 0
14 -3 26 -52 -51 -38 0
-26 -32 -18 -23 24 0
24 -40 20 43 17 0
-46 -25 28 0
15 -13 35 34 -5 30 0
-29 3 0
-51 16 13 -26 0
49 42 34 -5 -11 0
14 32 -11 0
-5 25 -4 0
31 -18 0
3 24 -35 0
25 -28 0
-14 -16 -29 44 2 -32 0
-35 25 -12 0
48 29 53 0
19 -34 -8 2 0
-29 20 -1 -41 22 0
27 -34 -18 35 25 17 0
17 -27 -15 50 -22 40 0
33 22 5 0
-10 -43 0
-37 5 31 24 0
46 -40 3 25 21 0
-9 33 0
34 52 -13 0
-1 52 27 -6 -13 25 0
-43 47 16 -34 12 0
-6 -19 0
-13 -38 46 32 -15 28 0
28 13 -53 0
46 24 -27 0
-12 -23 40 2 0
-44 39 -46 -3 0
26 34 31 24 -21 51 0
-3 -11 39 0
53 0
